WARNING: for repeatability, setting FPU to use double precision
============================[ Problem Statistics ]=============================
|                                                                             |
|  Number of variables:        120049                                         |
|  Number of clauses:         3541088                                         |
|  Parse time:                   0.97 s                                       |
|  Eliminated clauses:           0.16 Mb                                      |
|  Simplification time:          1.22 s                                       |
|                                                                             |
============================[ Search Statistics ]==============================
| Conflicts |          ORIGINAL         |          LEARNT          | Progress |
|           |    Vars  Clauses Literals |    Limit  Clauses Lit/Cl |          |
===============================================================================
|       100 |    9253    99267   325215 |    36397      100     49 | 79.180 % |
|       250 |    9253    99267   325215 |    40037      250     50 | 79.180 % |
|       475 |    9253    99267   325215 |    44041      475     52 | 79.180 % |
|       812 |    9253    99267   325215 |    48445      812     47 | 79.180 % |
|      1318 |    9253    99267   325215 |    53290     1318     50 | 79.180 % |
|      2077 |    9253    99267   325215 |    58619     2077     49 | 79.180 % |
|      3216 |    9253    99267   325215 |    64481     3216     46 | 79.180 % |
|      4924 |    9253    99267   325215 |    70929     4924     49 | 79.180 % |
|      7486 |    9253    99267   325215 |    78022     7486     52 | 79.180 % |
|     11330 |    9253    99267   325215 |    85824    11330     53 | 79.180 % |
|     17096 |    9253    99267   325215 |    94406    17096     54 | 79.180 % |
|     25745 |    9253    99267   325215 |   103847    25745     55 | 79.180 % |
|     38719 |    9253    99267   325215 |   114232    38719     72 | 79.180 % |
|     58180 |    9253    99267   325215 |   125655    58180     65 | 79.180 % |
|     87372 |    9253    99267   325215 |   138220    87372     64 | 79.180 % |
|    131161 |    9253    99267   325215 |   152043   131161     63 | 79.180 % |
|    196845 |    9253    99267   325215 |   167247   196845     63 | 79.180 % |
|    295371 |    9253    99267   325215 |   183972    47002     57 | 79.180 % |
|    443160 |    9253    99267   325215 |   202369   194791     66 | 79.180 % |
|    664843 |    9253    99267   325215 |   222606   132432     62 | 79.180 % |
|    997368 |    9253    99267   325215 |   244866   161801     79 | 79.180 % |
|   1496156 |    9253    99267   325215 |   269353   334091     63 | 79.180 % |
|   2244338 |    9253    99267   325215 |   296288    26403     73 | 79.180 % |
|   3366612 |    9253    99267   325215 |   325917    18592     91 | 79.180 % |
|   5050023 |    9253    99267   325215 |   358509    73931     46 | 79.180 % |
|   7575139 |    9253    99267   325215 |   394360   388290     86 | 79.180 % |
|  11362814 |    9253    99267   325215 |   433796   375169     74 | 79.180 % |
===============================================================================
restarts              : 22525
conflicts             : 15013953       (12794 /sec)
decisions             : 76735205       (0.00 % random) (65389 /sec)
propagations          : 1041022724     (887096 /sec)
conflict literals     : 1215840030     (7.38 % deleted)
Memory used           : 876.00 MB
CPU time              : 1173.52 s

SATISFIABLE
